86.0 22.0 0
29.0 17.0 1
4.0 50.0 23
25.0 13.0 23
67.0 37.0 5
13.0 7.0 7
62.0 15.0 18
84.0 38.0 12
34.0 3.0 20
19.0 45.0 19
42.0 76.0 19
40.0 86.0 16
25.0 94.0 2
63.0 57.0 26
75.0 24.0 13
61.0 85.0 19
87.0 38.0 17
54.0 39.0 14
66.0 34.0 8
46.0 39.0 10
47.0 17.0 5
21.0 54.0 19
19.0 83.0 12
1.0 82.0 9
94.0 28.0 18
82.0 72.0 4
41.0 59.0 20
100.0 77.0 8
1.0 57.0 3
96.0 7.0 18
57.0 82.0 26
47.0 38.0 21
68.0 89.0 21
16.0 36.0 8
51.0 38.0 19
83.0 74.0 66
84.0 2.0 21
